<number of tasks>
50

<cycle time>
1000

<order strength>
0.198


<task times>
1 547
2 31
3 346
4 179
5 91
6 144
7 116
8 98
9 70
10 107
11 489
12 86
13 499
14 242
15 409
16 171
17 210
18 108
19 121
20 37
21 451
22 167
23 149
24 66
25 190
26 170
27 118
28 454
29 115
30 541
31 327
32 235
33 154
34 84
35 156
36 167
37 488
38 88
39 215
40 126
41 251
42 279
43 90
44 373
45 42
46 399
47 54
48 55
49 217
50 412

<precedence relations>
1,31
2,11
3,12
3,15
4,8
5,9
5,16
6,13
7,10
7,14
8,31
9,31
10,31
11,17
12,18
14,21
15,19
15,20
15,22
15,23
17,25
18,24
19,26
21,27
22,28
23,29
23,30
24,31
25,32
26,33
26,34
30,35
31,36
31,37
31,38
31,39
31,40
32,41
33,42
36,43
36,45
38,46
41,44
43,47
45,48
45,50
46,49

<end>
